
(set-logic ALL) 

(declare-datatype MyList ((Nil) (Cons (head Real) (tail MyList)) )) 
(declare-fun l0 () MyList) 
(declare-fun l1 () MyList) 
(declare-fun l2 () MyList) 
(declare-fun l3 () MyList) 
(declare-fun i0 () Real) 
(declare-fun i1 () Real) 
(assert (is-Nil l3) )
(assert (or (= l0 Nil) (is-Cons l2) (= l0 Nil) (= l2 l0)) )
(assert (or (= l2 Nil) (= l1 Nil) (= l2 l3) (= l0 l3)) )
(assert (not (= l1 l1)) )
(assert (and (= l0 l3) (= l1 Nil)) )
(assert (not (= l0 Nil)) )
(assert (and (= l2 l0) (= l0 l2) (= l2 Nil)) )
(assert (and (= l2 Nil) (= l1 Nil) (= l2 Nil)) )
(check-sat)
